n_machines = 5;
n_resources = 6;
n_jobs = 43;
horizon = 20348;
LB = 5009;
n_jobs_per_resource = [9, 8, 5, 8, 9, 4];
duration = [342, 304, 427, 8, 179, 265, 895, 86, 626, 995, 430, 425, 49, 203, 609, 299, 520, 952, 202, 129, 135, 258, 266, 402, 728, 661, 395, 971, 628, 958, 631, 552, 121, 800, 879, 152, 561, 299, 120, 638, 646, 955, 647]